
******************************************************************************
This program contains Ipopt, a library for large-scale nonlinear optimization.
 Ipopt is released as open source code under the Eclipse Public License (EPL).
         For more information visit http://projects.coin-or.org/Ipopt

This version of Ipopt was compiled from source code available at
    https://github.com/IDAES/Ipopt as part of the Institute for the Design of
    Advanced Energy Systems Process Systems Engineering Framework (IDAES PSE
    Framework) Copyright (c) 2018-2019. See https://github.com/IDAES/idaes-pse.

This version of Ipopt was compiled using HSL, a collection of Fortran codes
    for large-scale scientific computation.  All technical papers, sales and
    publicity material resulting from use of the HSL codes within IPOPT must
    contain the following acknowledgement:
        HSL, a collection of Fortran codes for large-scale scientific
        computation. See http://www.hsl.rl.ac.uk.
******************************************************************************

This is Ipopt version 3.13.2, running with linear solver ma27.

Number of nonzeros in equality constraint Jacobian...:      808
Number of nonzeros in inequality constraint Jacobian.:        0
Number of nonzeros in Lagrangian Hessian.............:      702

Total number of variables............................:      351
                     variables with only lower bounds:      108
                variables with lower and upper bounds:      189
                     variables with only upper bounds:        0
Total number of equality constraints.................:      350
Total number of inequality constraints...............:        0
        inequality constraints with only lower bounds:        0
   inequality constraints with lower and upper bounds:        0
        inequality constraints with only upper bounds:        0

iter    objective    inf_pr   inf_du lg(mu)  ||d||  lg(rg) alpha_du alpha_pr  ls
   0  0.0000000e+00 7.66e-01 1.42e-14  -1.0 0.00e+00    -  0.00e+00 0.00e+00   0
   1  1.3047623e+00 1.17e+00 2.05e+05  -1.0 1.28e+05    -  4.80e-01 5.83e-01h  1
   2  1.3962219e+00 1.11e+00 1.94e+05  -1.0 4.76e+04    -  8.15e-01 4.94e-02h  1
   3  1.4274594e+00 1.09e+00 1.90e+05  -1.0 2.22e+05    -  7.80e-01 1.76e-02h  1
   4  1.6430957e+01 6.96e-01 2.13e+04  -1.0 2.25e+05    -  7.79e-01 9.90e-01h  1
   5  2.0581196e+01 1.14e-01 2.17e+03  -1.0 3.16e+04    -  3.82e-01 9.90e-01h  1
   6  2.0687294e+01 5.02e-03 2.12e+04  -1.0 7.63e+02    -  9.08e-01 9.90e-01h  1
   7  2.0690757e+01 5.97e-05 2.07e+02  -1.0 2.38e+01    -  9.90e-01 9.90e-01h  1
   8  2.0712799e+01 3.48e-06 1.97e+03  -1.7 1.49e+02    -  9.90e-01 9.90e-01h  1
   9  2.0687907e+01 4.85e-06 4.47e+07  -3.8 1.88e+02    -  1.00e+00 8.84e-01f  1
iter    objective    inf_pr   inf_du lg(mu)  ||d||  lg(rg) alpha_du alpha_pr  ls
  10  2.0688036e+01 1.05e-09 5.08e+05  -3.8 8.64e-01    -  1.00e+00 1.00e+00h  1
In iteration 10, 27 Slacks too small, adjusting variable bounds
  11  2.0688036e+01 2.36e-11 3.33e+09  -3.8 1.33e-03    -  1.00e+00 1.00e+00h  1
  12  2.0688036e+01 2.99e-11 2.08e+13  -3.8 3.12e-06    -  1.00e+00 6.25e-02h  5
  13  2.0688036e+01 1.77e-11 1.82e+13  -3.8 3.97e-06    -  1.00e+00 1.25e-01h  4
  14  2.0688036e+01 1.91e-11 1.82e+13  -3.8 2.35e-06    -  1.00e+00 2.44e-04h 13
  15  2.0688036e+01 9.55e-12 9.09e+12  -3.8 2.53e-06    -  1.00e+00 5.00e-01h  2
  16  2.0688036e+01 1.10e-11 9.08e+12  -3.8 1.33e-06    -  1.00e+00 4.88e-04h 12
  17  2.0688036e+01 5.52e-11 1.51e-03  -3.8 1.53e-06    -  1.00e+00 1.00e+00s 22
  18  2.0687886e+01 1.64e-10 4.14e-05  -9.0 1.01e+00    -  9.99e-01 9.99e-01s 22
  19  2.0687886e+01 7.53e-11 2.55e-10  -9.0 9.23e-06    -  1.00e+00 1.00e+00s 22

Number of Iterations....: 19

                                   (scaled)                 (unscaled)
Objective...............:   2.0687885663037438e+01    2.0687885663037438e+01
Dual infeasibility......:   2.5465851649641991e-10    2.5465851649641991e-10
Constraint violation....:   7.5274453337215164e-11    7.5274453337215164e-11
Complementarity.........:   9.0909165919818143e-10    9.0909165919818143e-10
Overall NLP error.......:   7.5274453337215164e-11    9.0909165919818143e-10


Number of objective function evaluations             = 81
Number of objective gradient evaluations             = 20
Number of equality constraint evaluations            = 81
Number of inequality constraint evaluations          = 0
Number of equality constraint Jacobian evaluations   = 20
Number of inequality constraint Jacobian evaluations = 0
Number of Lagrangian Hessian evaluations             = 19
Total CPU secs in IPOPT (w/o function evaluations)   =      0.040
Total CPU secs in NLP function evaluations           =      0.680

EXIT: Optimal Solution Found.
